sat
((prim_1_1 1))
((prim_1_2 1))
((prim_1_3 2))
((prim_1_4 2))
((prim_1_5 1))
((prim_1_6 2))
((prim_1_7 4))
((prim_1_8 4))
((prim_1_9 4))
((x_1_1 5))
((x_1_2 5))
((x_1_3 5))
((x_1_4 6))
((x_1_5 7))
((x_1_6 7))
((x_1_7 8))
((x_1_8 8))
((x_1_9 8))
((x_1_10 8))
((y_1_1 5))
((y_1_2 6))
((y_1_3 7))
((y_1_4 7))
((y_1_5 7))
((y_1_6 8))
((y_1_7 8))
((y_1_8 8))
((y_1_9 8))
((y_1_10 8))
((vel_i_1_1 0))
((vel_i_1_2 0))
((vel_i_1_3 0))
((vel_i_1_4 0))
((vel_i_1_5 0))
((vel_i_1_6 0))
((vel_i_1_7 0))
((vel_i_1_8 0))
((vel_i_1_9 0))
((vel_f_1_1 0))
((vel_f_1_2 0))
((vel_f_1_3 0))
((vel_f_1_4 0))
((vel_f_1_5 0))
((vel_f_1_6 0))
((vel_f_1_7 0))
((vel_f_1_8 0))
((vel_f_1_9 0))
((x_f_1_1 0))
((x_f_1_2 0))
((x_f_1_3 1))
((x_f_1_4 1))
((x_f_1_5 0))
((x_f_1_6 1))
((x_f_1_7 0))
((x_f_1_8 0))
((x_f_1_9 0))
((y_f_1_1 1))
((y_f_1_2 1))
((y_f_1_3 0))
((y_f_1_4 0))
((y_f_1_5 1))
((y_f_1_6 0))
((y_f_1_7 0))
((y_f_1_8 0))
((y_f_1_9 0))
((cost_1_1 (/ 1823467776.0 6103515625.0)))
((cost_1_2 (/ 1823467776.0 6103515625.0)))
((cost_1_3 (/ 1823467776.0 6103515625.0)))
((cost_1_4 (/ 1823467776.0 6103515625.0)))
((cost_1_5 (/ 1823467776.0 6103515625.0)))
((cost_1_6 (/ 1823467776.0 6103515625.0)))
((cost_1_7 (/ 1823467776.0 6103515625.0)))
((cost_1_8 (/ 1823467776.0 6103515625.0)))
((cost_1_9 (/ 1823467776.0 6103515625.0)))
((total_cost (/ 16411209984.0 6103515625.0)))
